nP = 2;
nT = 7;
nC1 = 5;
nC2 = 11;
nA = 40;
nD = 3;

arc_from = [1, 2, 1, 2, 1, 2, 2, 2, 1, 1, 3, 3, 3, 4, 4, 5, 5, 6, 7, 7, 7, 8, 8, 9, 11, 14, 14, 10, 14, 12, 13, 10, 10, 12, 12, 10, 11, 12, 13, 13];
arc_to = [3, 3, 4, 4, 5, 6, 7, 8, 8, 9, 14, 12, 13, 10, 12, 11, 13, 12, 11, 10, 12, 14, 11, 12, 15, 16, 17, 18, 19, 20, 21, 22, 23, 24, 25, 15, 24, 16, 16, 23];

supply = [424.79, 424.79, 0.00, 0.00, 0.00, 0.00, 0.00, 0.00, 0.00, 0.00, 0.00, 0.00, 0.00, 0.00, 0.00, 0.00, 0.00, 0.00, 0.00, 0.00, 0.00, 0.00, 0.00, 0.00, 0.00];
demand = [0.00, 0.00, 0.00, 0.00, 0.00, 0.00, 0.00, 0.00, 0.00, 47.86, 40.97, 35.25, 49.70, 43.80, 34.99, 39.53, 45.62, 41.80, 33.89, 33.84, 43.41, 40.15, 43.44, 38.41, 40.86];

max_capacity = [795, 1414, 3181];

install_cost = array2d(1..nA, 1..nD, [
  20, 24, 32,
  50, 62, 78,
  20, 24, 32,
  50, 62, 78,
  20, 24, 32,
  50, 62, 78,
  20, 24, 32,
  50, 62, 78,
  20, 24, 32,
  50, 62, 78,
  20, 24, 32,
  50, 62, 78,
  20, 24, 32,
  50, 62, 78,
  20, 24, 32,
  50, 62, 78,
  20, 24, 32,
  50, 62, 78,
  20, 24, 32,
  50, 62, 78,
  20, 24, 32,
  50, 62, 78,
  20, 24, 32,
  50, 62, 78,
  20, 24, 32,
  50, 62, 78,
  20, 24, 32,
  50, 62, 78,
  20, 24, 32,
  50, 62, 78,
  20, 24, 32,
  50, 62, 78,
  20, 24, 32,
  50, 62, 78,
  20, 24, 32,
  50, 62, 78,
  20, 24, 32,
  50, 62, 78,
  20, 24, 32,
  50, 62, 78
]);

trans_cost = [6.31, 3.06, 4.01, 6.30, 7.11, 6.26, 5.83, 5.55, 3.78, 4.92, 5.31, 7.59, 6.52, 3.36, 6.49, 5.42, 4.98, 6.92, 7.55, 7.40, 4.74, 5.54, 6.50, 7.46, 5.28, 5.72, 4.34, 4.21, 7.22, 8.03, 5.89, 7.51, 6.54, 5.03, 6.54, 8.31, 5.95, 8.35, 2.07, 7.23];

% Metadata: {'tamaño': 'pequeñas', 'numero': 2, 'grupo': 5, 'demanda_total': 653.52, 'suministro_total': 849.58, 'factor_holgura': 1.3, 'num_arcos': 40, 'conectividad': {'plantas_tanques': 10, 'tanques_transbordo': 14, 'transbordo_finales': 16}}
% Total supply: 849.58
% Total demand: 653.52
% Balance factor: 1.30
